% MIT License
%
% Copyright (c) 2021 Johan Ludde Wessén
%
% Permission is hereby granted, free of charge, to any person obtaining 
% a copy of this software and associated documentation files (the "Software"),
% to deal in the Software without restriction, including without limitation 
% the rights to use, copy, modify, merge, publish, distribute, sublicense, 
% and/or sell copies of the Software, and to permit persons to whom the 
% Software is furnished to do so, subject to the following conditions:
% 
% The above copyright notice and this permission notice shall be included 
% in all copies or substantial portions of the Software.
%
% THE SOFTWARE IS PROVIDED "AS IS", WITHOUT WARRANTY OF ANY KIND, 
% EXPRESS OR IMPLIED, INCLUDING BUT NOT LIMITED TO THE WARRANTIES OF
% MERCHANTABILITY, FITNESS FOR A PARTICULAR PURPOSE AND
% NONINFRINGEMENT. IN NO EVENT SHALL THE AUTHORS OR COPYRIGHT HOLDERS BE
% LIABLE FOR ANY CLAIM, DAMAGES OR OTHER LIABILITY, WHETHER IN AN ACTION
% OF CONTRACT, TORT OR OTHERWISE, ARISING FROM, OUT OF OR IN CONNECTION
% WITH THE SOFTWARE OR THE USE OR OTHER DEALINGS IN THE SOFTWARE.

%-----------------------------------------------------------------------------%
% Dual Arm Multi Capacity Multi Tool Scheduling / Routing
% Assembly Configuration
% Auto Generated by python script, authored by Johan Ludde Wessen 
%-----------------------------------------------------------------------------%


task_durations = [|22, 29, 22, 22, 32, 26, 22, 31, 26, 25, 46, 56, 49, 46, 51, 47, 58, 49, 45, 49,  7,  6,  4,  7,  5,  8,  7,  5,  6
                  |24, 25, 21, 26, 35, 31, 21, 33, 27, 24, 51, 59, 51, 43, 58, 43, 53, 52, 50, 52,  5,  6,  6,  7,  6,  6,  8,  5,  8
                  |];


TRAY_TASKS = 1..8;
CAMERA_TASKS = {  };
OUTPUT_TASKS = { 20 };


empty_gripper_tasks = 21..29;


gripper_pick_tasks_orders = [|1, 11, -1
|2, 12, -1
|3, 13, -1
|4, 14, -1
|5, 15, -1
|6, 16, -1
|7, 17, -1
|8, 18, -1
|9, 19, -1
|10, 20, -1
|];

suction_pick_tasks_orders = [||];

fixture_task_orders = [|11, 21, 12, 22, 13, 23, 14, 24, 9, -1, -1, -1
|15, 25, 16, 26, 17, 27, 18, 28, 19, 29, 10, -1
|];

